NAME: tsp30-25
TYPE: TSP
DIMENSION: 30
EDGE_WEIGHT_TYPE: EUC_2D
NODE_COORD_SECTION
0 20 72
1 89 89
2 22 40
3 97 3
4 34 29
5 8 30
6 25 86
7 21 6
8 3 77
9 15 22
10 98 8
11 13 94
12 63 22
13 29 22
14 69 78
15 75 80
16 1 24
17 17 86
18 3 44
19 52 25
20 28 76
21 71 56
22 53 82
23 30 88
24 70 96
25 25 24
26 67 82
27 13 76
28 27 91
29 80 96
EOF